num_plantas = 1;
num_dias = 2;
num_clientes = 1;

coste_produccion = [5];
capacidad_maxima = [100];
demanda_diaria = array2d(1..1, 1..2, [80, 80]);

porcentaje_minimo = 50;
pago_por_mw = [15];
porcentaje_regimen_alto = [50];    
max_dias_regimen_alto = [1];       
